Route #1: 7 1 13 14 19 15 2 8 3 4 9 16 20 31 41 46 45 34 30 29 33 28 27 26 40 43 62 51 52 44 53 63 64 65 77 67 81 88 76 87 100 94 95 96 89 82 90 78 70 69 68 57 58 54 59 71 72 73 79 83 91 97 98 92 84 93 99 85 86 75 80 74 66 61 60 55 47 42 36 35 21 10 22 17 11 5 12 24 23 32 37 38 48 49 56 50 39 25 18 6
Cost 45631
